1540
32 17 12 6 55 7 87 26 52 62 98 61 66 53 51 74 94 76 45 48 57 43 64 91 20 70 30 93 99 42 25 18 3 54 75 84 60 46 82 24 86 58 27 37 14 56 34 11 28 2 19 95 80 97 22 72 40 47 85 31 92 33 9 50 59 96 89 44 29 39 90 35 63 10 5 41 16 81 73 79 88 77 36 13 4 68 49 71 65 1 83 38 78 67 8 23 21 69 15 
